\ LP format - for model browsing. Use MPS format to capture full model detail.
Minimize
  0 a[0,50]
Subject To
 R0: - s[0,0] + s[0,1] - v[0,0] = 0
 R1: - v[0,0] + v[0,1] - a[0,0] = 0
 R2: - s[0,1] + s[0,2] - v[0,1] = 0
 R3: - v[0,1] + v[0,2] - a[0,1] = 0
 R4: - s[0,2] + s[0,3] - v[0,2] = 0
 R5: - v[0,2] + v[0,3] - a[0,2] = 0
 R6: - s[0,3] + s[0,4] - v[0,3] = 0
 R7: - v[0,3] + v[0,4] - a[0,3] = 0
 R8: - s[0,4] + s[0,5] - v[0,4] = 0
 R9: - v[0,4] + v[0,5] - a[0,4] = 0
 R10: - s[0,5] + s[0,6] - v[0,5] = 0
 R11: - v[0,5] + v[0,6] - a[0,5] = 0
 R12: - s[0,6] + s[0,7] - v[0,6] = 0
 R13: - v[0,6] + v[0,7] - a[0,6] = 0
 R14: - s[0,7] + s[0,8] - v[0,7] = 0
 R15: - v[0,7] + v[0,8] - a[0,7] = 0
 R16: - s[0,8] + s[0,9] - v[0,8] = 0
 R17: - v[0,8] + v[0,9] - a[0,8] = 0
 R18: - s[0,9] + s[0,10] - v[0,9] = 0
 R19: - v[0,9] + v[0,10] - a[0,9] = 0
 R20: - s[0,10] + s[0,11] - v[0,10] = 0
 R21: - v[0,10] + v[0,11] - a[0,10] = 0
 R22: - s[0,11] + s[0,12] - v[0,11] = 0
 R23: - v[0,11] + v[0,12] - a[0,11] = 0
 R24: - s[0,12] + s[0,13] - v[0,12] = 0
 R25: - v[0,12] + v[0,13] - a[0,12] = 0
 R26: - s[0,13] + s[0,14] - v[0,13] = 0
 R27: - v[0,13] + v[0,14] - a[0,13] = 0
 R28: - s[0,14] + s[0,15] - v[0,14] = 0
 R29: - v[0,14] + v[0,15] - a[0,14] = 0
 R30: - s[0,15] + s[0,16] - v[0,15] = 0
 R31: - v[0,15] + v[0,16] - a[0,15] = 0
 R32: - s[0,16] + s[0,17] - v[0,16] = 0
 R33: - v[0,16] + v[0,17] - a[0,16] = 0
 R34: - s[0,17] + s[0,18] - v[0,17] = 0
 R35: - v[0,17] + v[0,18] - a[0,17] = 0
 R36: - s[0,18] + s[0,19] - v[0,18] = 0
 R37: - v[0,18] + v[0,19] - a[0,18] = 0
 R38: - s[0,19] + s[0,20] - v[0,19] = 0
 R39: - v[0,19] + v[0,20] - a[0,19] = 0
 R40: - s[0,20] + s[0,21] - v[0,20] = 0
 R41: - v[0,20] + v[0,21] - a[0,20] = 0
 R42: - s[0,21] + s[0,22] - v[0,21] = 0
 R43: - v[0,21] + v[0,22] - a[0,21] = 0
 R44: - s[0,22] + s[0,23] - v[0,22] = 0
 R45: - v[0,22] + v[0,23] - a[0,22] = 0
 R46: - s[0,23] + s[0,24] - v[0,23] = 0
 R47: - v[0,23] + v[0,24] - a[0,23] = 0
 R48: - s[0,24] + s[0,25] - v[0,24] = 0
 R49: - v[0,24] + v[0,25] - a[0,24] = 0
 R50: - s[0,25] + s[0,26] - v[0,25] = 0
 R51: - v[0,25] + v[0,26] - a[0,25] = 0
 R52: - s[0,26] + s[0,27] - v[0,26] = 0
 R53: - v[0,26] + v[0,27] - a[0,26] = 0
 R54: - s[0,27] + s[0,28] - v[0,27] = 0
 R55: - v[0,27] + v[0,28] - a[0,27] = 0
 R56: - s[0,28] + s[0,29] - v[0,28] = 0
 R57: - v[0,28] + v[0,29] - a[0,28] = 0
 R58: - s[0,29] + s[0,30] - v[0,29] = 0
 R59: - v[0,29] + v[0,30] - a[0,29] = 0
 R60: - s[0,30] + s[0,31] - v[0,30] = 0
 R61: - v[0,30] + v[0,31] - a[0,30] = 0
 R62: - s[0,31] + s[0,32] - v[0,31] = 0
 R63: - v[0,31] + v[0,32] - a[0,31] = 0
 R64: - s[0,32] + s[0,33] - v[0,32] = 0
 R65: - v[0,32] + v[0,33] - a[0,32] = 0
 R66: - s[0,33] + s[0,34] - v[0,33] = 0
 R67: - v[0,33] + v[0,34] - a[0,33] = 0
 R68: - s[0,34] + s[0,35] - v[0,34] = 0
 R69: - v[0,34] + v[0,35] - a[0,34] = 0
 R70: - s[0,35] + s[0,36] - v[0,35] = 0
 R71: - v[0,35] + v[0,36] - a[0,35] = 0
 R72: - s[0,36] + s[0,37] - v[0,36] = 0
 R73: - v[0,36] + v[0,37] - a[0,36] = 0
 R74: - s[0,37] + s[0,38] - v[0,37] = 0
 R75: - v[0,37] + v[0,38] - a[0,37] = 0
 R76: - s[0,38] + s[0,39] - v[0,38] = 0
 R77: - v[0,38] + v[0,39] - a[0,38] = 0
 R78: - s[0,39] + s[0,40] - v[0,39] = 0
 R79: - v[0,39] + v[0,40] - a[0,39] = 0
 R80: - s[0,40] + s[0,41] - v[0,40] = 0
 R81: - v[0,40] + v[0,41] - a[0,40] = 0
 R82: - s[0,41] + s[0,42] - v[0,41] = 0
 R83: - v[0,41] + v[0,42] - a[0,41] = 0
 R84: - s[0,42] + s[0,43] - v[0,42] = 0
 R85: - v[0,42] + v[0,43] - a[0,42] = 0
 R86: - s[0,43] + s[0,44] - v[0,43] = 0
 R87: - v[0,43] + v[0,44] - a[0,43] = 0
 R88: - s[0,44] + s[0,45] - v[0,44] = 0
 R89: - v[0,44] + v[0,45] - a[0,44] = 0
 R90: - s[0,45] + s[0,46] - v[0,45] = 0
 R91: - v[0,45] + v[0,46] - a[0,45] = 0
 R92: - s[0,46] + s[0,47] - v[0,46] = 0
 R93: - v[0,46] + v[0,47] - a[0,46] = 0
 R94: - s[0,47] + s[0,48] - v[0,47] = 0
 R95: - v[0,47] + v[0,48] - a[0,47] = 0
 R96: - s[0,48] + s[0,49] - v[0,48] = 0
 R97: - v[0,48] + v[0,49] - a[0,48] = 0
 R98: - s[0,49] + s[0,50] - v[0,49] = 0
 R99: - v[0,49] + v[0,50] - a[0,49] = 0
 R100: b_0 = 1
 R101: - s[0,0] - 10000 b_0 >= -10000
 R102: - s[0,0] - 10000 b_0 <= -0.0001
 R103: s[0,0] - 10000 b_0 >= -10000
 R104: s[0,0] - 10000 b_0 <= -0.0001
 R105: b_1 = 1
 R106: - v[0,0] - 10000 b_1 >= -10000
 R107: - v[0,0] - 10000 b_1 <= -0.0001
 R108: v[0,0] - 10000 b_1 >= -10000
 R109: v[0,0] - 10000 b_1 <= -0.0001
 R110: b_g = 1
 R111: s[0,0] - 10000 b_g_3[0,0] >= -9555
 R112: s[0,0] - 10000 b_g_3[0,0] <= 444.9999
 R113: s[0,1] - 10000 b_g_3[0,1] >= -9555
 R114: s[0,1] - 10000 b_g_3[0,1] <= 444.9999
 R115: s[0,2] - 10000 b_g_3[0,2] >= -9555
 R116: s[0,2] - 10000 b_g_3[0,2] <= 444.9999
 R117: s[0,3] - 10000 b_g_3[0,3] >= -9555
 R118: s[0,3] - 10000 b_g_3[0,3] <= 444.9999
 R119: s[0,4] - 10000 b_g_3[0,4] >= -9555
 R120: s[0,4] - 10000 b_g_3[0,4] <= 444.9999
 R121: s[0,5] - 10000 b_g_3[0,5] >= -9555
 R122: s[0,5] - 10000 b_g_3[0,5] <= 444.9999
 R123: s[0,6] - 10000 b_g_3[0,6] >= -9555
 R124: s[0,6] - 10000 b_g_3[0,6] <= 444.9999
 R125: s[0,7] - 10000 b_g_3[0,7] >= -9555
 R126: s[0,7] - 10000 b_g_3[0,7] <= 444.9999
 R127: s[0,8] - 10000 b_g_3[0,8] >= -9555
 R128: s[0,8] - 10000 b_g_3[0,8] <= 444.9999
 R129: s[0,9] - 10000 b_g_3[0,9] >= -9555
 R130: s[0,9] - 10000 b_g_3[0,9] <= 444.9999
 R131: s[0,10] - 10000 b_g_3[0,10] >= -9555
 R132: s[0,10] - 10000 b_g_3[0,10] <= 444.9999
 R133: s[0,11] - 10000 b_g_3[0,11] >= -9555
 R134: s[0,11] - 10000 b_g_3[0,11] <= 444.9999
 R135: s[0,12] - 10000 b_g_3[0,12] >= -9555
 R136: s[0,12] - 10000 b_g_3[0,12] <= 444.9999
 R137: s[0,13] - 10000 b_g_3[0,13] >= -9555
 R138: s[0,13] - 10000 b_g_3[0,13] <= 444.9999
 R139: s[0,14] - 10000 b_g_3[0,14] >= -9555
 R140: s[0,14] - 10000 b_g_3[0,14] <= 444.9999
 R141: s[0,15] - 10000 b_g_3[0,15] >= -9555
 R142: s[0,15] - 10000 b_g_3[0,15] <= 444.9999
 R143: s[0,16] - 10000 b_g_3[0,16] >= -9555
 R144: s[0,16] - 10000 b_g_3[0,16] <= 444.9999
 R145: s[0,17] - 10000 b_g_3[0,17] >= -9555
 R146: s[0,17] - 10000 b_g_3[0,17] <= 444.9999
 R147: s[0,18] - 10000 b_g_3[0,18] >= -9555
 R148: s[0,18] - 10000 b_g_3[0,18] <= 444.9999
 R149: s[0,19] - 10000 b_g_3[0,19] >= -9555
 R150: s[0,19] - 10000 b_g_3[0,19] <= 444.9999
 R151: s[0,20] - 10000 b_g_3[0,20] >= -9555
 R152: s[0,20] - 10000 b_g_3[0,20] <= 444.9999
 R153: s[0,21] - 10000 b_g_3[0,21] >= -9555
 R154: s[0,21] - 10000 b_g_3[0,21] <= 444.9999
 R155: s[0,22] - 10000 b_g_3[0,22] >= -9555
 R156: s[0,22] - 10000 b_g_3[0,22] <= 444.9999
 R157: s[0,23] - 10000 b_g_3[0,23] >= -9555
 R158: s[0,23] - 10000 b_g_3[0,23] <= 444.9999
 R159: s[0,24] - 10000 b_g_3[0,24] >= -9555
 R160: s[0,24] - 10000 b_g_3[0,24] <= 444.9999
 R161: s[0,25] - 10000 b_g_3[0,25] >= -9555
 R162: s[0,25] - 10000 b_g_3[0,25] <= 444.9999
 R163: s[0,26] - 10000 b_g_3[0,26] >= -9555
 R164: s[0,26] - 10000 b_g_3[0,26] <= 444.9999
 R165: s[0,27] - 10000 b_g_3[0,27] >= -9555
 R166: s[0,27] - 10000 b_g_3[0,27] <= 444.9999
 R167: s[0,28] - 10000 b_g_3[0,28] >= -9555
 R168: s[0,28] - 10000 b_g_3[0,28] <= 444.9999
 R169: s[0,29] - 10000 b_g_3[0,29] >= -9555
 R170: s[0,29] - 10000 b_g_3[0,29] <= 444.9999
 R171: s[0,30] - 10000 b_g_3[0,30] >= -9555
 R172: s[0,30] - 10000 b_g_3[0,30] <= 444.9999
 R173: s[0,31] - 10000 b_g_3[0,31] >= -9555
 R174: s[0,31] - 10000 b_g_3[0,31] <= 444.9999
 R175: s[0,32] - 10000 b_g_3[0,32] >= -9555
 R176: s[0,32] - 10000 b_g_3[0,32] <= 444.9999
 R177: s[0,33] - 10000 b_g_3[0,33] >= -9555
 R178: s[0,33] - 10000 b_g_3[0,33] <= 444.9999
 R179: s[0,34] - 10000 b_g_3[0,34] >= -9555
 R180: s[0,34] - 10000 b_g_3[0,34] <= 444.9999
 R181: s[0,35] - 10000 b_g_3[0,35] >= -9555
 R182: s[0,35] - 10000 b_g_3[0,35] <= 444.9999
 R183: s[0,36] - 10000 b_g_3[0,36] >= -9555
 R184: s[0,36] - 10000 b_g_3[0,36] <= 444.9999
 R185: s[0,37] - 10000 b_g_3[0,37] >= -9555
 R186: s[0,37] - 10000 b_g_3[0,37] <= 444.9999
 R187: s[0,38] - 10000 b_g_3[0,38] >= -9555
 R188: s[0,38] - 10000 b_g_3[0,38] <= 444.9999
 R189: s[0,39] - 10000 b_g_3[0,39] >= -9555
 R190: s[0,39] - 10000 b_g_3[0,39] <= 444.9999
 R191: s[0,40] - 10000 b_g_3[0,40] >= -9555
 R192: s[0,40] - 10000 b_g_3[0,40] <= 444.9999
 R193: s[0,41] - 10000 b_g_3[0,41] >= -9555
 R194: s[0,41] - 10000 b_g_3[0,41] <= 444.9999
 R195: s[0,42] - 10000 b_g_3[0,42] >= -9555
 R196: s[0,42] - 10000 b_g_3[0,42] <= 444.9999
 R197: s[0,43] - 10000 b_g_3[0,43] >= -9555
 R198: s[0,43] - 10000 b_g_3[0,43] <= 444.9999
 R199: s[0,44] - 10000 b_g_3[0,44] >= -9555
 R200: s[0,44] - 10000 b_g_3[0,44] <= 444.9999
 R201: s[0,45] - 10000 b_g_3[0,45] >= -9555
 R202: s[0,45] - 10000 b_g_3[0,45] <= 444.9999
 R203: s[0,46] - 10000 b_g_3[0,46] >= -9555
 R204: s[0,46] - 10000 b_g_3[0,46] <= 444.9999
 R205: s[0,47] - 10000 b_g_3[0,47] >= -9555
 R206: s[0,47] - 10000 b_g_3[0,47] <= 444.9999
 R207: s[0,48] - 10000 b_g_3[0,48] >= -9555
 R208: s[0,48] - 10000 b_g_3[0,48] <= 444.9999
 R209: s[0,49] - 10000 b_g_3[0,49] >= -9555
 R210: s[0,49] - 10000 b_g_3[0,49] <= 444.9999
 R211: s[0,50] - 10000 b_g_3[0,50] >= -9555
 R212: s[0,50] - 10000 b_g_3[0,50] <= 444.9999
Bounds
 -100 <= s[0,0] <= 2000
 -100 <= s[0,1] <= 2000
 -100 <= s[0,2] <= 2000
 -100 <= s[0,3] <= 2000
 -100 <= s[0,4] <= 2000
 -100 <= s[0,5] <= 2000
 -100 <= s[0,6] <= 2000
 -100 <= s[0,7] <= 2000
 -100 <= s[0,8] <= 2000
 -100 <= s[0,9] <= 2000
 -100 <= s[0,10] <= 2000
 -100 <= s[0,11] <= 2000
 -100 <= s[0,12] <= 2000
 -100 <= s[0,13] <= 2000
 -100 <= s[0,14] <= 2000
 -100 <= s[0,15] <= 2000
 -100 <= s[0,16] <= 2000
 -100 <= s[0,17] <= 2000
 -100 <= s[0,18] <= 2000
 -100 <= s[0,19] <= 2000
 -100 <= s[0,20] <= 2000
 -100 <= s[0,21] <= 2000
 -100 <= s[0,22] <= 2000
 -100 <= s[0,23] <= 2000
 -100 <= s[0,24] <= 2000
 -100 <= s[0,25] <= 2000
 -100 <= s[0,26] <= 2000
 -100 <= s[0,27] <= 2000
 -100 <= s[0,28] <= 2000
 -100 <= s[0,29] <= 2000
 -100 <= s[0,30] <= 2000
 -100 <= s[0,31] <= 2000
 -100 <= s[0,32] <= 2000
 -100 <= s[0,33] <= 2000
 -100 <= s[0,34] <= 2000
 -100 <= s[0,35] <= 2000
 -100 <= s[0,36] <= 2000
 -100 <= s[0,37] <= 2000
 -100 <= s[0,38] <= 2000
 -100 <= s[0,39] <= 2000
 -100 <= s[0,40] <= 2000
 -100 <= s[0,41] <= 2000
 -100 <= s[0,42] <= 2000
 -100 <= s[0,43] <= 2000
 -100 <= s[0,44] <= 2000
 -100 <= s[0,45] <= 2000
 -100 <= s[0,46] <= 2000
 -100 <= s[0,47] <= 2000
 -100 <= s[0,48] <= 2000
 -100 <= s[0,49] <= 2000
 -100 <= s[0,50] <= 2000
 -5 <= v[0,0] <= 10
 -5 <= v[0,1] <= 10
 -5 <= v[0,2] <= 10
 -5 <= v[0,3] <= 10
 -5 <= v[0,4] <= 10
 -5 <= v[0,5] <= 10
 -5 <= v[0,6] <= 10
 -5 <= v[0,7] <= 10
 -5 <= v[0,8] <= 10
 -5 <= v[0,9] <= 10
 -5 <= v[0,10] <= 10
 -5 <= v[0,11] <= 10
 -5 <= v[0,12] <= 10
 -5 <= v[0,13] <= 10
 -5 <= v[0,14] <= 10
 -5 <= v[0,15] <= 10
 -5 <= v[0,16] <= 10
 -5 <= v[0,17] <= 10
 -5 <= v[0,18] <= 10
 -5 <= v[0,19] <= 10
 -5 <= v[0,20] <= 10
 -5 <= v[0,21] <= 10
 -5 <= v[0,22] <= 10
 -5 <= v[0,23] <= 10
 -5 <= v[0,24] <= 10
 -5 <= v[0,25] <= 10
 -5 <= v[0,26] <= 10
 -5 <= v[0,27] <= 10
 -5 <= v[0,28] <= 10
 -5 <= v[0,29] <= 10
 -5 <= v[0,30] <= 10
 -5 <= v[0,31] <= 10
 -5 <= v[0,32] <= 10
 -5 <= v[0,33] <= 10
 -5 <= v[0,34] <= 10
 -5 <= v[0,35] <= 10
 -5 <= v[0,36] <= 10
 -5 <= v[0,37] <= 10
 -5 <= v[0,38] <= 10
 -5 <= v[0,39] <= 10
 -5 <= v[0,40] <= 10
 -5 <= v[0,41] <= 10
 -5 <= v[0,42] <= 10
 -5 <= v[0,43] <= 10
 -5 <= v[0,44] <= 10
 -5 <= v[0,45] <= 10
 -5 <= v[0,46] <= 10
 -5 <= v[0,47] <= 10
 -5 <= v[0,48] <= 10
 -5 <= v[0,49] <= 10
 -5 <= v[0,50] <= 10
 -1 <= a[0,0] <= 1
 -1 <= a[0,1] <= 1
 -1 <= a[0,2] <= 1
 -1 <= a[0,3] <= 1
 -1 <= a[0,4] <= 1
 -1 <= a[0,5] <= 1
 -1 <= a[0,6] <= 1
 -1 <= a[0,7] <= 1
 -1 <= a[0,8] <= 1
 -1 <= a[0,9] <= 1
 -1 <= a[0,10] <= 1
 -1 <= a[0,11] <= 1
 -1 <= a[0,12] <= 1
 -1 <= a[0,13] <= 1
 -1 <= a[0,14] <= 1
 -1 <= a[0,15] <= 1
 -1 <= a[0,16] <= 1
 -1 <= a[0,17] <= 1
 -1 <= a[0,18] <= 1
 -1 <= a[0,19] <= 1
 -1 <= a[0,20] <= 1
 -1 <= a[0,21] <= 1
 -1 <= a[0,22] <= 1
 -1 <= a[0,23] <= 1
 -1 <= a[0,24] <= 1
 -1 <= a[0,25] <= 1
 -1 <= a[0,26] <= 1
 -1 <= a[0,27] <= 1
 -1 <= a[0,28] <= 1
 -1 <= a[0,29] <= 1
 -1 <= a[0,30] <= 1
 -1 <= a[0,31] <= 1
 -1 <= a[0,32] <= 1
 -1 <= a[0,33] <= 1
 -1 <= a[0,34] <= 1
 -1 <= a[0,35] <= 1
 -1 <= a[0,36] <= 1
 -1 <= a[0,37] <= 1
 -1 <= a[0,38] <= 1
 -1 <= a[0,39] <= 1
 -1 <= a[0,40] <= 1
 -1 <= a[0,41] <= 1
 -1 <= a[0,42] <= 1
 -1 <= a[0,43] <= 1
 -1 <= a[0,44] <= 1
 -1 <= a[0,45] <= 1
 -1 <= a[0,46] <= 1
 -1 <= a[0,47] <= 1
 -1 <= a[0,48] <= 1
 -1 <= a[0,49] <= 1
 -1 <= a[0,50] <= 1
Binaries
 b_0 b_1 b_g b_g_3[0,0] b_g_3[0,1] b_g_3[0,2] b_g_3[0,3] b_g_3[0,4]
 b_g_3[0,5] b_g_3[0,6] b_g_3[0,7] b_g_3[0,8] b_g_3[0,9] b_g_3[0,10]
 b_g_3[0,11] b_g_3[0,12] b_g_3[0,13] b_g_3[0,14] b_g_3[0,15] b_g_3[0,16]
 b_g_3[0,17] b_g_3[0,18] b_g_3[0,19] b_g_3[0,20] b_g_3[0,21] b_g_3[0,22]
 b_g_3[0,23] b_g_3[0,24] b_g_3[0,25] b_g_3[0,26] b_g_3[0,27] b_g_3[0,28]
 b_g_3[0,29] b_g_3[0,30] b_g_3[0,31] b_g_3[0,32] b_g_3[0,33] b_g_3[0,34]
 b_g_3[0,35] b_g_3[0,36] b_g_3[0,37] b_g_3[0,38] b_g_3[0,39] b_g_3[0,40]
 b_g_3[0,41] b_g_3[0,42] b_g_3[0,43] b_g_3[0,44] b_g_3[0,45] b_g_3[0,46]
 b_g_3[0,47] b_g_3[0,48] b_g_3[0,49] b_g_3[0,50]
General Constraints
 GC0: b_g = OR ( b_g_3[0,0] , b_g_3[0,1] , b_g_3[0,2] , b_g_3[0,3] ,
   b_g_3[0,4] , b_g_3[0,5] , b_g_3[0,6] , b_g_3[0,7] , b_g_3[0,8] ,
   b_g_3[0,9] , b_g_3[0,10] , b_g_3[0,11] , b_g_3[0,12] , b_g_3[0,13] ,
   b_g_3[0,14] , b_g_3[0,15] , b_g_3[0,16] , b_g_3[0,17] , b_g_3[0,18] ,
   b_g_3[0,19] , b_g_3[0,20] , b_g_3[0,21] , b_g_3[0,22] , b_g_3[0,23] ,
   b_g_3[0,24] , b_g_3[0,25] , b_g_3[0,26] , b_g_3[0,27] , b_g_3[0,28] ,
   b_g_3[0,29] , b_g_3[0,30] , b_g_3[0,31] , b_g_3[0,32] , b_g_3[0,33] ,
   b_g_3[0,34] , b_g_3[0,35] , b_g_3[0,36] , b_g_3[0,37] , b_g_3[0,38] ,
   b_g_3[0,39] , b_g_3[0,40] , b_g_3[0,41] , b_g_3[0,42] , b_g_3[0,43] ,
   b_g_3[0,44] , b_g_3[0,45] , b_g_3[0,46] , b_g_3[0,47] , b_g_3[0,48] ,
   b_g_3[0,49] , b_g_3[0,50] )
End
